[APP]
ARCH = RESNET
BATCH_SIZE = 150
NETWORK_DEPTH = IGNORE
NORM_LAYER = EMPTY_NORM

[FIT]
TUNE_LR = False
N_EPOCHS = 50
CHECKPOINT_MONITOR = val_mae
LOG_GRAPH = True
MODEL_HYPERPARAMS = lr=0.00001
TRAINER_PRECISION = 32-true

[DATA]
APPLY_TFMS = correct_intensity,circular_unfold_date,circular_unfold_lon,normalize
PARAMETERS = date#sin,date#cos,lat,lon#sin,lon#cos,intensity,za_250,za_300,za_500,za_850
INPUT_PARAMETERS = date#sin,date#cos,lat,lon#sin,lon#cos,intensity,za_250,za_300,za_500,za_850
NORM_PARAMETERS = date#sin,date#cos,lat,lon#sin,lon#cos,intensity,za_250,za_300,za_500,za_850
TARGET_PARAMETERS = intensity,
YEARS = 1979,1980,1981,1982,1983,1984,1985,1986,1987,1988,1989,1990,1991,1992,1993,1994,1995,1996,1997,1998,1999,2000,2001,2002,2003,2004,2005,2006,2007,2008,2009,2010,2011,2012,2013,2014,2015,2016,2017,2018,2019,2020,2021,2022,2023,2024
LOOKBACK_RANGE = 3
FORECAST_RANGE = 1

[EVAL]
CHECKPOINT_VERSION = 0
METRIC = test_mae
APPLY_DENORMALIZATION = True

[DATA_ANALYSIS]
