[APP]
ARCH = SIMPLE_NN
BATCH_SIZE = 100
NETWORK_DEPTH = 8

[FIT]
N_EPOCHS = 30
CHECKPOINT_MONITOR = val_mae
LOG_GRAPH = True
MODEL_HYPERPARAMS = lr=0.0001
TRAINER_PRECISION = 32-true

[DATA]
PARAMETERS = date,lat,lon,sp,t2m,intensity,u10,v10,tcw,z,ta_250,ta_300,ta_500,ta_850,ua_250,ua_300,ua_500,ua_850,va_250,va_300,va_500,va_850,za_250,za_300,za_500,za_850
INPUT_PARAMETERS = date,lat,lon,sp,t2m,u10,v10,tcw,z,ta_250,ta_300,ta_500,ta_850,ua_250,ua_300,ua_500,ua_850,va_250,va_300,va_500,va_850,za_250,za_300,za_500,za_850
NORM_PARAMETERS = date,lat,lon,sp,t2m,intensity,u10,v10,tcw,z,ta_250,ta_300,ta_500,ta_850,ua_250,ua_300,ua_500,ua_850,va_250,va_300,va_500,va_850,za_250,za_300,za_500,za_850
TARGET_PARAMETERS = intensity,
YEARS = 1990,1991,1992,1993,1994,1995,1996,1997,1998,1999,2000
LOOKBACK_RANGE = 0
FORECAST_RANGE = 1

[EVAL]
CHECKPOINT_VERSION = 0
METRIC = test_mae
APPLY_DENORMALIZATION = True

[DATA_ANALYSIS]
