[APP]
ARCH = NAIVE_MODULE
BATCH_SIZE = 100
NETWORK_DEPTH = 8

[FIT]
N_EPOCHS = 1
CHECKPOINT_MONITOR = val_mae
LOG_GRAPH = True
MODEL_HYPERPARAMS =
TRAINER_PRECISION = 32-true

[DATA]
APPLY_TFMS = haversine_distance_drop_first_time
PARAMETERS = lat#haversine,lon#haversine,
INPUT_PARAMETERS = lat#haversine,
NORM_PARAMETERS =
TARGET_PARAMETERS = lat#haversine,
YEARS = 1979,1980,1981,1982,1983,1984,1985,1986,1987,1988,1989,1990,1991,1992,1993,1994,1995,1996,1997,1998,1999,2000,2001,2002,2003,2004,2005,2006,2007,2008,2009,2010,2011,2012,2013,2014,2015,2016,2017,2018,2019,2020,2021,2022,2023,2024
LOOKBACK_RANGE = 2
FORECAST_RANGE = 1

[EVAL]
CHECKPOINT_VERSION = 0
METRIC = test_mae
APPLY_DENORMALIZATION = False

[DATA_ANALYSIS]
