[APP]
ARCH = NAIVE_MODULE
BATCH_SIZE = 100
NETWORK_DEPTH = 8

[FIT]
N_EPOCHS = 1
CHECKPOINT_MONITOR = val_mae
LOG_GRAPH = True
MODEL_HYPERPARAMS =
TRAINER_PRECISION = 32-true

[DATA]
APPLY_TFMS =
PARAMETERS = intensity,
INPUT_PARAMETERS = intensity,
NORM_PARAMETERS =
TARGET_PARAMETERS = intensity,
YEARS = 1990,1991,1992,1993,1994,1995,1996,1997,1998,1999,2000
LOOKBACK_RANGE = 0
FORECAST_RANGE = 1

[EVAL]
CHECKPOINT_VERSION = 0
METRIC = test_mae
APPLY_DENORMALIZATION = True

[DATA_ANALYSIS]
