[APP]
ARCH = CNN_SKIP_CONNECTION
BATCH_SIZE = 450
NETWORK_DEPTH = 8
NORM_LAYER = EMPTY_NORM
POOL_LAYER = MAX_POOL

[FIT]
TUNE_LR = True
N_EPOCHS = 80
CHECKPOINT_MONITOR = val_mae
LOG_GRAPH = True
MODEL_HYPERPARAMS = lr=0.000630957344480193
TRAINER_PRECISION = 32-true

[DATA]
PATH = /home/mansour/ML3300-24a/omersela3/tensors_0h_6h-v2
APPLY_TFMS = filter_nan,correct_intensity,op=delta_suffix=-6h,circular_unfold_date,circular_unfold_lon,normalize
PARAMETERS = date#sin,date#cos,lat,lon#sin,lon#cos,sp,t2m,intensity,u10,v10,tcw,z,ta_250,ta_300,ta_500,ta_850,ua_250,ua_300,ua_500,ua_850,va_250,va_300,va_500,va_850,za_250,za_300,za_500,za_850,msl,skt,slhf,tp,msl-6h,slhf-6h,sp-6h,t2m-6h,ta-6h_250,ta-6h_300,ta-6h_500,ta-6h_850,tcw-6h,tp-6h,u10-6h,ua-6h_250,ua-6h_300,ua-6h_500,ua-6h_850,v10-6h,va-6h_250,va-6h_300,va-6h_500,va-6h_850,za-6h_250,za-6h_300,za-6h_500,za-6h_850
INPUT_PARAMETERS = date#sin,date#cos,lat,lon#sin,lon#cos,sp,t2m,intensity,u10,v10,tcw,z,ta_250,ta_300,ta_500,ta_850,ua_250,ua_300,ua_500,ua_850,va_250,va_300,va_500,va_850,za_250,za_300,za_500,za_850,msl,skt,slhf,tp,msl-6h,slhf-6h,sp-6h,t2m-6h,ta-6h_250,ta-6h_300,ta-6h_500,ta-6h_850,tcw-6h,tp-6h,u10-6h,ua-6h_250,ua-6h_300,ua-6h_500,ua-6h_850,v10-6h,va-6h_250,va-6h_300,va-6h_500,va-6h_850,za-6h_250,za-6h_300,za-6h_500,za-6h_850
NORM_PARAMETERS = date#sin,date#cos,lat,lon#sin,lon#cos,sp,t2m,intensity,u10,v10,tcw,z,ta_250,ta_300,ta_500,ta_850,ua_250,ua_300,ua_500,ua_850,va_250,va_300,va_500,va_850,za_250,za_300,za_500,za_850,msl,skt,slhf,tp,msl-6h,slhf-6h,sp-6h,t2m-6h,ta-6h_250,ta-6h_300,ta-6h_500,ta-6h_850,tcw-6h,tp-6h,u10-6h,ua-6h_250,ua-6h_300,ua-6h_500,ua-6h_850,v10-6h,va-6h_250,va-6h_300,va-6h_500,va-6h_850,za-6h_250,za-6h_300,za-6h_500,za-6h_850
TARGET_PARAMETERS = intensity,
YEARS = 1979,1980,1981,1982,1983,1984,1985,1986,1987,1988,1989,1990,1991,1992,1993,1994,1995,1996,1997,1998,1999,2000
LOOKBACK_RANGE = 3
FORECAST_RANGE = 1
FIX_TIMES_MISMATCH_IN_DATA = True

[EVAL]
CHECKPOINT_VERSION = 0
METRIC = test_mae
APPLY_DENORMALIZATION = True

[DATA_ANALYSIS]
