[APP]
ARCH = CNN_SKIP_CONNECTION
BATCH_SIZE = 450
NETWORK_DEPTH = 8
NORM_LAYER = EMPTY_NORM
POOL_LAYER = MAX_POOL

[FIT]
TUNE_LR = True
N_EPOCHS = 80
CHECKPOINT_MONITOR = val_mae
LOG_GRAPH = True
MODEL_HYPERPARAMS = lr=0.000630957344480193
TRAINER_PRECISION = 32-true

[DATA]
PATH = /home/mansour/ML3300-24a/omersela3/tensors-v5
APPLY_TFMS = filter_nan,correct_intensity,op=delta_suffix=-12h,circular_unfold_date,circular_unfold_lon,normalize
PARAMETERS = date#sin,date#cos,lat,lon#sin,lon#cos,sp,t2m,intensity,u10,v10,tcw,z,ta_250,ta_300,ta_500,ta_850,ua_250,ua_300,ua_500,ua_850,va_250,va_300,va_500,va_850,za_250,za_300,za_500,za_850,msl,slhf,tp,qa_250,qa_300,qa_500,qa_850,sshf,msl-12h,slhf-12h,sp-12h,t2m-12h,ta-12h_250,ta-12h_300,ta-12h_500,ta-12h_850,tcw-12h,tp-12h,u10-12h,ua-12h_250,ua-12h_300,ua-12h_500,ua-12h_850,v10-12h,va-12h_250,va-12h_300,va-12h_500,va-12h_850,za-12h_250,za-12h_300,za-12h_500,za-12h_850,qa-12h_250,qa-12h_300,qa-12h_500,qa-12h_850,sshf-12h
INPUT_PARAMETERS = date#sin,date#cos,lat,lon#sin,lon#cos,sp,t2m,intensity,u10,v10,tcw,z,ta_250,ta_300,ta_500,ta_850,ua_250,ua_300,ua_500,ua_850,va_250,va_300,va_500,va_850,za_250,za_300,za_500,za_850,msl,slhf,tp,qa_250,qa_300,qa_500,qa_850,sshf,msl-12h,slhf-12h,sp-12h,t2m-12h,ta-12h_250,ta-12h_300,ta-12h_500,ta-12h_850,tcw-12h,tp-12h,u10-12h,ua-12h_250,ua-12h_300,ua-12h_500,ua-12h_850,v10-12h,va-12h_250,va-12h_300,va-12h_500,va-12h_850,za-12h_250,za-12h_300,za-12h_500,za-12h_850,qa-12h_250,qa-12h_300,qa-12h_500,qa-12h_850,sshf-12h
NORM_PARAMETERS = date#sin,date#cos,lat,lon#sin,lon#cos,sp,t2m,intensity,u10,v10,tcw,z,ta_250,ta_300,ta_500,ta_850,ua_250,ua_300,ua_500,ua_850,va_250,va_300,va_500,va_850,za_250,za_300,za_500,za_850,msl,slhf,tp,qa_250,qa_300,qa_500,qa_850,sshf,msl-12h,slhf-12h,sp-12h,t2m-12h,ta-12h_250,ta-12h_300,ta-12h_500,ta-12h_850,tcw-12h,tp-12h,u10-12h,ua-12h_250,ua-12h_300,ua-12h_500,ua-12h_850,v10-12h,va-12h_250,va-12h_300,va-12h_500,va-12h_850,za-12h_250,za-12h_300,za-12h_500,za-12h_850,qa-12h_250,qa-12h_300,qa-12h_500,qa-12h_850,sshf-12h
TARGET_PARAMETERS = msl,
YEARS = 1979,1980,1981,1982,1983,1984,1985,1986,1987,1988,1989,1990,1991,1992,1993,1994,1995,1996,1997,1998,1999,2000,2001,2002,2003,2004,2005,2006,2007,2008,2009,2010,2011,2012,2013,2014,2015,2016,2017,2018,2019,2020,2021,2022,2023,2024
LOOKBACK_RANGE = 3
FORECAST_RANGE = 2
FIX_TIMES_MISMATCH_IN_DATA = True

[EVAL]
CHECKPOINT_VERSION = 0
METRIC = test_mae
STORM_CLASSIFICATION_METRICS = test_mae,test_mae_ci,test_mae_ci_lower_0.95,test_mae_ci_upper_0.95
APPLY_DENORMALIZATION = True

[DATA_ANALYSIS]
